p cnf 10 15
-9 -5 -2 8 7 0
8 10 1 2 5 0
2 6 -10 -7 -4 0
-6 -7 1 -9 3 0
-4 -8 -2 7 6 0
-8 -5 3 -10 4 0
-4 -10 -6 -2 -1 0
-2 10 -3 -7 -5 0
-8 1 -7 3 -4 0
-10 8 -4 -1 -2 0
3 -10 9 -7 1 0
3 5 -6 2 4 0
-2 5 -3 -4 1 0
-1 8 -5 2 7 0
-3 -4 -5 -2 -10 0
